data/mip_solutions/furman_sahinidis/transshipment/12sp1_gurobi.sol
Elapsed time: 0.111366033554
Nodes explored: 5
Upper bound: 12.0
Lower bound: 12.0
y[0,0]=1
y[0,1]=1
y[1,1]=1
y[2,1]=1
y[2,2]=1
y[3,0]=1
y[4,0]=1
y[5,2]=1
y[6,0]=1
y[7,1]=1
y[8,0]=1
y[9,1]=1
q[0,0,10]=27476.47
q[0,0,12]=6663.52
q[0,1,1]=28992.816
q[0,1,2]=42683.868
q[0,1,3]=12080.34
q[0,1,4]=10469.628
q[0,1,5]=4554.296
q[0,1,6]=12966.051
q[0,1,7]=13207.502
q[0,1,8]=3566.629
q[0,1,9]=25792.184
q[1,1,2]=23565.708
q[1,1,4]=10919.506
q[1,1,5]=7977.524
q[1,1,6]=18230.076
q[1,1,7]=4890.996
q[1,1,8]=2445.498
q[1,1,9]=7114.176
q[2,1,6]=36261.911
q[2,2,6]=1591.234
q[2,2,7]=3042.578
q[2,2,8]=1521.289
q[2,2,9]=5531.96
q[2,2,10]=18255.468
q[3,0,10]=21278.936
q[3,0,11]=23567.524
q[4,0,10]=12826.5
q[5,2,6]=4079.025
q[6,0,10]=20284.23
q[7,1,8]=3037.122
q[8,0,12]=11942.42
q[9,1,0]=30438.383
q[9,1,1]=30238.632
q[9,1,2]=20952.278
q[9,1,3]=12599.43
q[9,1,5]=11325.291
r[0,6]=7123.366
r[0,7]=27176.911
r[0,8]=22828.325
r[0,9]=23691.154
r[0,10]=14006.09
r[0,11]=6663.52
r[0,12]=6663.52
r[1,4]=6669.54
r[1,5]=1530.302
r[2,6]=9896.54
r[2,7]=26.7150000001
r[2,8]=4491.857
r[2,9]=6724.428
r[2,10]=14842.868
r[3,9]=6090.26
r[3,10]=28236.66
r[3,11]=23567.524
r[4,4]=1131.75
r[4,5]=2112.6
r[4,6]=3206.625
r[4,7]=6300.075
r[4,8]=7130.025
r[4,9]=7545.0
r[4,10]=9054.0
r[5,5]=2356.77
r[5,6]=4079.025
r[6,7]=6522.772
r[6,8]=8272.784
r[6,9]=9147.79
r[6,10]=12329.63
r[7,8]=2024.748
r[8,10]=3412.12
r[8,11]=11942.42
r[8,12]=11942.42
r[9,1]=75115.631
r[9,2]=44876.999
r[9,3]=23924.721
r[9,4]=11325.291
r[9,5]=11325.291
